db/inputs/87469725592112527183605413206081911.smt2
(set-logic QF_FP)
(declare-const x0 (_ FloatingPoint 8 24))
(declare-const x1 (_ FloatingPoint 8 24))
(declare-const x2 (_ FloatingPoint 8 24))
(declare-const x3 (_ FloatingPoint 8 24))
(declare-const x4 (_ FloatingPoint 8 24))
(declare-const x5 (_ FloatingPoint 8 24))
(declare-const x6 (_ FloatingPoint 8 24))
(declare-const x7 (_ FloatingPoint 8 24))
(declare-const x8 (_ FloatingPoint 8 24))
(declare-const x9 (_ FloatingPoint 8 24))
(assert (fp.eq (fp.div RNE (fp.div RNE x1 x6) (fp.neg x0)) (fp.add RNE (fp.neg x3) (fp.mul RNE x3 x3))))
(assert (fp.lt (fp.add RNE (fp.div RNE x8 x0) (fp.div RNE x1 x2)) (fp.div RNE (fp.neg x9) (fp.add RNE x5 x9))))
(assert (fp.geq (fp.sub RNE (fp.neg x9) (fp.sub RNE x7 x4)) (fp.add RNE (fp.div RNE x5 x8) (fp.add RNE x5 x3))))
(assert (fp.gt (fp.div RNE (fp.div RNE x6 x8) (fp.mul RNE x9 x9)) (fp.sub RNE (fp.mul RNE x0 x9) (fp.neg x3))))
(check-sat)
