db/data/87469725592112527183605413206081911.z3.out
sat
-------------------
75.276808107
